(set-info :smt-lib-version 2.6)
(set-logic QF_UFLRA)
(set-info :source |
MathSat group

|)
(set-info :category "random")
(set-info :status sat)
(declare-fun x0 () Real)
(declare-fun x1 () Real)
(declare-fun x2 () Real)
(declare-fun x3 () Real)
(declare-fun x4 () Real)
(declare-fun x5 () Real)
(declare-fun x6 () Real)
(declare-fun x7 () Real)
(declare-fun x8 () Real)
(declare-fun x9 () Real)
(declare-fun x10 () Real)
(declare-fun x11 () Real)
(declare-fun x12 () Real)
(declare-fun x13 () Real)
(declare-fun x14 () Real)
(declare-fun x15 () Real)
(declare-fun x16 () Real)
(declare-fun x17 () Real)
(declare-fun x18 () Real)
(declare-fun x19 () Real)
(declare-fun x20 () Real)
(declare-fun x21 () Real)
(declare-fun x22 () Real)
(declare-fun x23 () Real)
(declare-fun x24 () Real)
(declare-fun x25 () Real)
(declare-fun x26 () Real)
(declare-fun x27 () Real)
(declare-fun x28 () Real)
(declare-fun x29 () Real)
(declare-fun f0_1 (Real) Real)
(declare-fun f0_2 (Real Real) Real)
(declare-fun f0_3 (Real Real Real) Real)
(declare-fun f0_4 (Real Real Real Real) Real)
(declare-fun P0 () Bool)
(declare-fun P1 () Bool)
(declare-fun P2 () Bool)
(declare-fun P3 () Bool)
(declare-fun P4 () Bool)
(declare-fun P5 () Bool)
(declare-fun P6 () Bool)
(declare-fun P7 () Bool)
(declare-fun P8 () Bool)
(declare-fun P9 () Bool)
(declare-fun P10 () Bool)
(declare-fun P11 () Bool)
(declare-fun P12 () Bool)
(declare-fun P13 () Bool)
(declare-fun P14 () Bool)
(declare-fun P15 () Bool)
(declare-fun P16 () Bool)
(declare-fun P17 () Bool)
(declare-fun P18 () Bool)
(declare-fun P19 () Bool)
(declare-fun P20 () Bool)
(declare-fun P21 () Bool)
(declare-fun P22 () Bool)
(declare-fun P23 () Bool)
(declare-fun P24 () Bool)
(declare-fun P25 () Bool)
(declare-fun P26 () Bool)
(declare-fun P27 () Bool)
(declare-fun P28 () Bool)
(declare-fun P29 () Bool)
(assert (let ((?v_49 (* 5 x11)) (?v_48 (* 36 x1)) (?v_7 (<= (- (+ (* 21 x3) (* 33 x7)) (* 23 x2)) 30)) (?v_31 (< (+ (- (* 9 x28) (* 9 x6)) (* 13 x14)) 44)) (?v_36 (= (- (- (* 14 x15) (* 41 x2)) (* 17 x22)) 44)) (?v_5 (= (+ (- (* 21 x1) (* 24 x24)) (* 21 x13)) 20)) (?v_28 (< (+ (- (* 33 x6) (* 14 x25)) (* 33 x26)) 12)) (?v_92 (= (f0_1 x7) x23)) (?v_21 (f0_1 x0))) (let ((?v_80 (distinct x0 ?v_21)) (?v_20 (f0_2 x3 x2))) (let ((?v_54 (= ?v_20 (f0_2 x26 x7))) (?v_74 (= ?v_20 x18)) (?v_42 (f0_1 x3))) (let ((?v_100 (distinct ?v_42 x20)) (?v_50 (= (f0_1 x5) x12)) (?v_14 (= (f0_2 x21 x9) (f0_1 x28))) (?v_73 (distinct (f0_1 x12) (f0_2 x28 x3))) (?v_34 (f0_1 x2))) (let ((?v_45 (distinct (f0_1 x13) ?v_34)) (?v_139 (distinct x22 x12)) (?v_112 (= x1 (f0_2 x16 x27))) (?v_15 (distinct ?v_34 (f0_1 x15))) (?v_9 (f0_1 x20))) (let ((?v_27 (distinct ?v_9 ?v_9)) (?v_105 (distinct (f0_2 x6 x8) x29)) (?v_70 (= x18 x7)) (?v_107 (distinct (f0_2 x23 x6) x7)) (?v_6 (distinct x15 x25)) (?v_145 (= x14 (f0_1 x27))) (?v_82 (distinct (f0_1 x23) (f0_1 x17))) (?v_44 (= x21 x0)) (?v_13 (distinct x9 (f0_2 x1 x20))) (?v_110 (= (f0_2 x17 x25) ?v_21)) (?v_108 (= x24 ?v_42)) (?v_72 (distinct (f0_2 x2 x19) ?v_21)) (?v_56 (= (f0_1 x1) (f0_2 x9 x5))) (?v_55 (distinct x25 (f0_1 x22))) (?v_85 (= x1 (f0_2 x23 x1))) (?v_138 (distinct (f0_2 x26 x3) x22)) (?v_132 (distinct x23 x10)) (?v_62 (distinct (f0_1 x26) (f0_1 x11)))) (let ((?v_0 (not ?v_105)) (?v_89 (not ?v_6)) (?v_155 (not ?v_70)) (?v_118 (not P12)) (?v_51 (not P17)) (?v_4 (not P29)) (?v_136 (or P11 ?v_13)) (?v_17 (not P25)) (?v_113 (not P28)) (?v_23 (not ?v_107)) (?v_98 (not P21)) (?v_12 (not ?v_62)) (?v_88 (not P18)) (?v_126 (not ?v_55)) (?v_16 (not P16)) (?v_39 (not P2)) (?v_29 (not P7)) (?v_129 (not ?v_44)) (?v_122 (not P9)) (?v_79 (not ?v_13)) (?v_128 (not ?v_14)) (?v_35 (not ?v_56)) (?v_30 (not ?v_54)) (?v_26 (not ?v_5)) (?v_41 (not ?v_110)) (?v_125 (not P1)) (?v_94 (not ?v_15)) (?v_52 (not P6)) (?v_97 (not ?v_27)) (?v_140 (not P4)) (?v_68 (not P26)) (?v_78 (not P22)) (?v_64 (not ?v_28)) (?v_75 (not ?v_36)) (?v_91 (not ?v_73)) (?v_133 (not ?v_138)) (?v_61 (not ?v_100)) (?v_76 (not ?v_7)) (?v_121 (not P8)) (?v_59 (not ?v_112)) (?v_69 (not ?v_108)) (?v_95 (not P14)) (?v_83 (not P24)) (?v_47 (not P5)) (?v_130 (not ?v_50)) (?v_120 (not P27)) (?v_149 (not P3)) (?v_87 (not P23)) (?v_86 (not ?v_72)) (?v_137 (not ?v_31)) (?v_99 (not P0)) (?v_134 (not ?v_80)) (?v_111 (not ?v_145)) (?v_143 (not P11)) (?v_115 (not ?v_85)) (?v_106 (not P19)) (?v_124 (not P20)) (?v_142 (not ?v_74)) (?v_147 (not ?v_132)) (?v_123 (not P15)) (?v_157 (not ?v_92)) (?v_148 (not P13)) (?v_144 (not ?v_82)) (?v_141 (not P10))) (let ((?v_156 (or ?v_141 ?v_73)) (?v_153 (not ?v_45)) (?v_151 (not ?v_139)) (?v_18 (< (+ (* 7 x6) (* 37 x1)) 14))) (let ((?v_57 (not ?v_18)) (?v_102 (<= (- (+ x2 (* 3 x3)) 0) 22))) (let ((?v_146 (not ?v_102)) (?v_81 (<= (+ (* 42 x13) (* 36 x5) (* 31 x14)) 23))) (let ((?v_96 (not ?v_81)) (?v_2 (<= (- (- (* (- 8) x3) (* 10 x11)) 0) (- 13))) (?v_40 (< (- (+ (* 11 x26) (* 15 x25)) (* 18 x5)) (- 36))) (?v_8 (<= (+ (- (* (- 38) x12) (* 8 x23)) (* 28 x19)) (- 7))) (?v_1 (< (- (- (* 22 x17) ?v_49) (* 25 x10)) (- 1))) (?v_3 (= (+ (* (- 9) x1) (* 37 x19)) (- 12))) (?v_10 (<= (+ (- (* 4 x22) (* 25 x22)) (* 38 x5)) (- 22))) (?v_90 (< (+ (* (- 5) x29) (* 2 x2) (* 32 x26)) 35))) (let ((?v_19 (not ?v_90)) (?v_22 (< (+ (- (* (- 9) x3) (* 34 x26)) (* 16 x23)) (- 30))) (?v_25 (distinct (- (- (* (- 4) x8) (* 29 x28)) (* 39 x25)) (- 8))) (?v_24 (<= (- (- (* (- 26) x4) (* 35 x22)) (* 23 x15)) (- 8))) (?v_65 (not ?v_8)) (?v_116 (not ?v_2)) (?v_60 (< (+ (* (- 33) x11) (* 14 x4) (* 9 x19)) (- 36))) (?v_11 (<= (- (+ (* (- 19) x13) (* 24 x6)) (* 16 x29)) (- 26)))) (let ((?v_93 (not ?v_11)) (?v_67 (< (+ (* (- 18) x26) (* 14 x20) (* 35 x21)) 24))) (let ((?v_32 (not ?v_67)) (?v_33 (< (- (- (* 17 x7) (* 4 x15)) 0) (- 42)))) (let ((?v_71 (not ?v_33)) (?v_131 (not ?v_24)) (?v_135 (not ?v_22)) (?v_38 (< (- (+ (* 26 x25) (* 22 x23)) (* 2 x22)) (- 44))) (?v_152 (= (+ (* (- 31) x22) (* 23 x12) ?v_48) 27))) (let ((?v_46 (not ?v_152)) (?v_84 (not ?v_1)) (?v_37 (< (+ (* 33 x28) (* 10 x6) (* 42 x21)) (- 34)))) (let ((?v_101 (not ?v_37)) (?v_43 (< (+ (- (* 15 x27) (* 41 x1)) (* 30 x2)) (- 32))) (?v_58 (< (+ (* (- 14) x6) (* 39 x17) (* 5 x28)) 30)) (?v_104 (not ?v_38)) (?v_63 (not ?v_10))) (let ((?v_119 (not ?v_43)) (?v_114 (< (+ (- ?v_48 ?v_49) (* 41 x18)) (- 5)))) (let ((?v_53 (not ?v_114)) (?v_66 (< (+ (- (* (- 17) x29) (* 5 x24)) (* 27 x11)) (- 24)))) (let ((?v_103 (not ?v_66)) (?v_77 (< (* 2 x21) (- 32))) (?v_109 (not ?v_25)) (?v_117 (not ?v_3))) (let ((?v_154 (not ?v_77)) (?v_127 (not ?v_58)) (?v_150 (not ?v_40)) (?v_158 (not ?v_60))) (and (and (and (and (and (and (and (and (and (and (and (and (and (and (and (and (and (and (and (and (and (and (and (and (and (and (and (and (and (and (and (and (and (and (and (and (and (and (and (and (and (and (and (and (and (and (and (and (and (and (and (and (and (and (and (and (and (and (and (and (and (and (and (and (and (and (and (and (and (and (and (and (and (and (and (and (and (and (and (and (and (and (and (and (and (and (and (and (and (and (and (and (and (and (and (and (and (and (and (and (and (and (and (and (and (and (and (and (and (and (and (and (and (and (and (and (and (and (and (and (and (and (and (and (and (and (and (and (and (and (and (and (and (and (and (and (and (and (and (and (and (and (and (and (and (and (and (and (and (and (and (and (and (and (and (and (and (and (and (and (and (and (and (and (and (and (and (and (and (and (and (and (and (and (and (and (and (and (and (and (and (and (and (and (and (and (and (and (and (and (and (and (and (and (and (and (and (and (and (and (and (and (and (and (and (and (and (and (and (and (and (and (and (and (and (and (and (and (and (and (and (and (and (and (and (and (and (and (and (and (and (and (and (and (and (and (and (and (and (and (and (and (and (and (and (and (and (and (and (and (and (and (and (and (and (and (and (and (and (and (and (and (and (and (and (and (and (and (and (and (and (and (and (and (and (and (and (and (and (and (and (and (and (and (and (and (and (and (and (and (and (and (and (and (and (and (and (and (and (and (and (and (and (and (and (and (and (and (and (and (and (and (and (and (and (and (and (and (and (and (and (and (and (and (and (and (and (and (and (and (and (and (and (and (and (and (and (and (and (and (and (and (and (and (and (and (and (and (and (and (and (and (and (and (and (and (and (and (and (or (or ?v_2 ?v_0) ?v_40) (or (or ?v_8 P21) ?v_89)) (or (or ?v_1 P23) ?v_15)) (or (or ?v_5 ?v_155) ?v_118)) (or (or ?v_0 ?v_51) ?v_4)) (or ?v_136 ?v_1)) (or (or ?v_17 ?v_3) ?v_80)) (or (or ?v_85 ?v_113) ?v_2)) (or (or ?v_10 ?v_7) ?v_50)) (or (or ?v_23 ?v_98) ?v_12)) (or (or ?v_19 ?v_88) ?v_31)) (or (or ?v_126 P12) ?v_3)) (or (or ?v_4 ?v_22) P13)) (or (or ?v_5 ?v_74) ?v_16)) (or (or ?v_6 ?v_39) ?v_28)) (or (or ?v_25 ?v_7) P25)) (or (or ?v_24 ?v_65) ?v_27)) (or (or P7 ?v_116) ?v_60)) (or (or ?v_14 ?v_29) ?v_129)) (or (or ?v_10 ?v_93) P17)) (or (or P2 ?v_122) P3)) (or (or ?v_11 ?v_12) P9)) (or (or ?v_79 ?v_128) ?v_15)) (or (or P15 ?v_18) ?v_16)) (or (or ?v_0 P2) ?v_35)) (or (or ?v_17 ?v_57) ?v_19)) (or (or ?v_30 P29) ?v_19)) (or (or ?v_32 ?v_26) ?v_71)) (or (or ?v_41 P28) ?v_22)) (or (or ?v_146 P19) ?v_72)) (or (or ?v_1 ?v_125) ?v_23)) (or (or ?v_131 ?v_19) ?v_94)) (or (or ?v_25 ?v_26) ?v_52)) (or (or ?v_135 ?v_97) ?v_38)) (or (or ?v_140 ?v_68) ?v_78)) (or (or ?v_64 ?v_75) ?v_46)) (or (or ?v_29 ?v_84) ?v_30)) (or (or P25 ?v_91) P9)) (or (or ?v_101 ?v_133) ?v_31)) (or (or ?v_4 ?v_32) P22)) (or (or P21 ?v_43) ?v_8)) (or (or ?v_58 ?v_1) ?v_61)) (or (or P26 ?v_33) ?v_45)) (or (or P15 P17) ?v_28)) (or (or ?v_35 P3) P28)) (or (or ?v_36 ?v_24) ?v_76)) (or (or ?v_37 ?v_104) ?v_39)) (or (or ?v_121 ?v_39) ?v_40)) (or (or ?v_16 P29) P9)) (or (or ?v_63 ?v_41) ?v_59)) (or (or ?v_69 ?v_25) ?v_95)) (or (or P16 ?v_83) ?v_119)) (or (or P18 ?v_44) P26)) (or (or ?v_45 ?v_47) ?v_46)) (or (or ?v_47 ?v_53) ?v_130)) (or (or ?v_51 ?v_52) P14)) (or (or ?v_53 P20) ?v_24)) (or (or P29 P10) P14)) (or (or ?v_54 P28) ?v_16)) (or (or ?v_15 P17) ?v_120)) (or (or ?v_29 ?v_55) ?v_139)) (or (or ?v_56 ?v_57) ?v_4)) (or (or ?v_58 ?v_35) P8)) (or (or ?v_59 ?v_41) ?v_60)) (or (or ?v_61 ?v_103) P16)) (or (or ?v_62 ?v_81) ?v_63)) (or (or ?v_64 P27) ?v_63)) (or (or ?v_65 P14) P22)) (or (or ?v_66 ?v_67) ?v_6)) (or (or ?v_82 ?v_68) P22)) (or (or ?v_77 ?v_13) ?v_33)) (or (or ?v_69 ?v_66) ?v_109)) (or (or ?v_149 ?v_87) ?v_70)) (or (or P24 ?v_17) ?v_71)) (or (or ?v_86 ?v_73) ?v_74)) (or (or ?v_35 ?v_75) ?v_38)) (or (or P11 ?v_0) ?v_76)) (or (or ?v_77 ?v_137) ?v_68)) (or (or P28 P6) ?v_78)) (or (or ?v_57 ?v_78) ?v_23)) (or (or ?v_99 ?v_79) ?v_0)) (or (or ?v_62 ?v_67) ?v_33)) (or (or ?v_134 ?v_72) ?v_96)) (or (or ?v_82 ?v_83) ?v_24)) (or (or ?v_44 ?v_12) ?v_111)) (or (or P26 ?v_84) ?v_33)) (or (or ?v_63 ?v_13) ?v_71)) (or (or ?v_92 ?v_143) ?v_85)) (or (or ?v_82 P3) P23)) (or (or ?v_77 ?v_86) ?v_87)) (or (or ?v_88 ?v_6) P23)) (or (or ?v_89 ?v_90) ?v_115)) (or (or ?v_91 ?v_82) ?v_28)) (or (or ?v_35 ?v_47) ?v_0)) (or (or ?v_92 ?v_38) ?v_41)) (or (or ?v_77 ?v_73) ?v_93)) (or (or ?v_14 ?v_94) P23)) (or (or ?v_95 ?v_96) ?v_97)) (or (or ?v_97 ?v_98) ?v_81)) (or (or ?v_67 ?v_69) ?v_99)) (or (or P27 ?v_50) ?v_99)) (or (or ?v_100 ?v_101) ?v_102)) (or (or ?v_103 ?v_100) ?v_106)) (or (or P23 ?v_25) P8)) (or (or ?v_58 ?v_67) ?v_64)) (or (or ?v_124 P9) P12)) (or (or P18 ?v_43) ?v_104)) (or (or ?v_102 ?v_105) P9)) (or (or P4 ?v_106) ?v_142)) (or (or ?v_107 ?v_64) ?v_108)) (or (or P3 ?v_43) ?v_44)) (or (or ?v_15 ?v_147) ?v_14)) (or (or ?v_91 ?v_61) ?v_117)) (or (or P22 ?v_109) ?v_6)) (or (or ?v_41 ?v_110) ?v_111)) (or (or ?v_6 P1) ?v_112)) (or (or ?v_37 ?v_113) ?v_71)) (or (or ?v_96 ?v_102) ?v_111)) (or (or ?v_56 P7) ?v_105)) (or (or ?v_55 ?v_114) ?v_115)) (or (or P5 ?v_116) ?v_43)) (or (or ?v_55 P5) P4)) (or (or ?v_0 ?v_27) ?v_154)) (or (or P24 P21) ?v_123)) (or (or ?v_75 ?v_108) ?v_54)) (or (or ?v_117 ?v_88) ?v_91)) (or (or ?v_100 P5) ?v_98)) (or (or ?v_111 ?v_63) P6)) (or (or ?v_47 ?v_41) ?v_118)) (or (or ?v_92 ?v_43) ?v_109)) (or (or ?v_106 ?v_92) ?v_55)) (or (or ?v_2 ?v_26) ?v_97)) (or (or ?v_17 ?v_27) ?v_119)) (or (or ?v_19 P24) ?v_106)) (or (or ?v_58 ?v_8) ?v_73)) (or (or P8 ?v_12) P29)) (or (or ?v_25 ?v_120) ?v_121)) (or (or ?v_60 ?v_122) ?v_123)) (or (or ?v_157 ?v_124) ?v_125)) (or (or ?v_46 ?v_46) ?v_75)) (or (or ?v_126 ?v_61) ?v_127)) (or (or P25 ?v_148) ?v_54)) (or (or ?v_117 ?v_127) ?v_144)) (or (or ?v_94 ?v_12) ?v_22)) (or (or ?v_128 P8) ?v_116)) (or (or ?v_60 ?v_44) ?v_110)) (or (or ?v_70 ?v_129) ?v_99)) (or (or ?v_60 ?v_33) P26)) (or ?v_156 ?v_50)) (or (or ?v_2 ?v_57) ?v_130)) (or (or ?v_27 P21) ?v_70)) (or (or P5 ?v_12) P7)) (or (or ?v_5 ?v_108) ?v_50)) (or (or P29 ?v_106) ?v_111)) (or (or ?v_123 ?v_131) ?v_69)) (or (or ?v_132 ?v_37) ?v_40)) (or (or ?v_36 P19) ?v_10)) (or (or ?v_75 ?v_133) ?v_113)) (or (or ?v_14 ?v_98) ?v_134)) (or (or ?v_107 ?v_65) ?v_73)) (or (or ?v_104 P1) P14)) (or (or ?v_131 ?v_135) ?v_75)) (or (or ?v_68 ?v_44) ?v_52)) (or (or ?v_150 ?v_153) ?v_113)) (or (or ?v_101 P24) ?v_0)) (or (or ?v_38 P14) ?v_71)) (or ?v_136 ?v_128)) (or (or P3 ?v_17) P12)) (or (or ?v_54 ?v_137) P27)) (or (or P20 ?v_51) ?v_8)) (or (or ?v_82 ?v_7) ?v_36)) (or (or ?v_131 ?v_58) ?v_110)) (or (or ?v_109 ?v_59) ?v_24)) (or (or ?v_31 ?v_82) ?v_70)) (or (or P27 ?v_138) ?v_124)) (or (or ?v_88 ?v_75) ?v_5)) (or (or ?v_68 ?v_119) ?v_121)) (or (or ?v_32 ?v_139) ?v_70)) (or (or P13 ?v_108) ?v_140)) (or (or ?v_71 ?v_141) ?v_117)) (or (or ?v_117 ?v_122) ?v_96)) (or (or ?v_111 ?v_105) ?v_90)) (or (or P5 ?v_85) ?v_114)) (or (or ?v_95 ?v_7) ?v_117)) (or (or ?v_56 ?v_1) ?v_128)) (or (or P18 ?v_97) ?v_67)) (or (or ?v_13 ?v_116) ?v_62)) (or (or P3 ?v_32) P26)) (or (or ?v_36 ?v_10) ?v_102)) (or (or ?v_142 P29) ?v_23)) (or (or ?v_143 ?v_11) ?v_3)) (or (or ?v_4 ?v_38) ?v_110)) (or (or P22 ?v_140) ?v_56)) (or (or ?v_144 ?v_130) ?v_13)) (or (or ?v_82 P10) ?v_32)) (or (or ?v_40 ?v_43) P12)) (or (or ?v_94 ?v_124) ?v_30)) (or (or ?v_145 ?v_24) P20)) (or (or P8 ?v_43) ?v_91)) (or (or ?v_138 ?v_72) ?v_114)) (or (or ?v_0 ?v_22) P0)) (or (or ?v_13 ?v_23) ?v_87)) (or (or ?v_6 P21) ?v_63)) (or (or ?v_86 ?v_114) ?v_151)) (or (or ?v_70 ?v_102) ?v_117)) (or (or ?v_8 ?v_100) ?v_125)) (or (or ?v_95 ?v_126) ?v_112)) (or (or ?v_134 P18) ?v_62)) (or (or P22 P2) ?v_71)) (or (or ?v_119 ?v_32) ?v_94)) (or (or ?v_52 ?v_85) ?v_50)) (or (or ?v_59 ?v_124) ?v_16)) (or (or ?v_146 ?v_109) P24)) (or (or P22 ?v_145) ?v_140)) (or (or P21 ?v_62) ?v_77)) (or (or ?v_13 ?v_67) ?v_85)) (or (or P18 ?v_83) ?v_147)) (or (or ?v_141 ?v_83) ?v_71)) (or (or ?v_57 ?v_18) ?v_126)) (or (or ?v_72 P3) ?v_148)) (or (or ?v_53 P3) P17)) (or (or ?v_74 ?v_111) ?v_117)) (or (or ?v_75 ?v_120) ?v_108)) (or (or ?v_1 ?v_149) P13)) (or (or ?v_150 ?v_80) P26)) (or (or ?v_151 P8) ?v_138)) (or (or ?v_110 ?v_59) ?v_104)) (or (or ?v_25 ?v_72) ?v_73)) (or (or ?v_80 ?v_131) ?v_54)) (or (or P20 P3) ?v_10)) (or (or P29 ?v_131) ?v_123)) (or (or P28 ?v_89) ?v_112)) (or (or ?v_130 ?v_138) ?v_152)) (or (or ?v_27 ?v_67) ?v_5)) (or (or ?v_46 ?v_74) ?v_119)) (or (or ?v_2 ?v_8) P11)) (or (or P0 ?v_153) P10)) (or (or ?v_22 ?v_128) ?v_107)) (or (or P25 ?v_151) ?v_62)) (or (or ?v_98 ?v_111) ?v_44)) (or (or ?v_147 ?v_130) ?v_65)) (or (or ?v_119 P1) ?v_73)) (or (or ?v_37 P29) P3)) (or (or ?v_13 P25) P20)) (or (or ?v_51 P20) ?v_141)) (or (or P10 ?v_30) ?v_132)) (or (or ?v_135 ?v_82) ?v_109)) (or (or ?v_17 P25) ?v_96)) (or (or ?v_80 ?v_89) ?v_14)) (or (or ?v_145 ?v_71) ?v_74)) (or (or ?v_112 ?v_122) P10)) (or (or ?v_52 ?v_26) ?v_115)) (or (or ?v_7 ?v_121) ?v_68)) (or (or ?v_40 ?v_13) ?v_132)) (or (or ?v_4 ?v_96) P3)) (or (or ?v_64 ?v_65) P27)) (or (or P1 ?v_107) ?v_37)) (or (or ?v_118 ?v_69) ?v_127)) (or (or ?v_142 P25) ?v_138)) (or (or ?v_100 ?v_154) ?v_102)) (or (or ?v_97 ?v_105) ?v_82)) (or (or ?v_0 ?v_133) ?v_124)) (or (or ?v_54 ?v_119) ?v_68)) (or (or P17 ?v_155) ?v_79)) (or (or ?v_75 ?v_1) ?v_5)) (or (or P10 ?v_112) ?v_152)) (or (or ?v_106 ?v_47) ?v_125)) (or (or ?v_102 P6) P8)) (or (or P14 ?v_83) ?v_105)) (or (or ?v_4 ?v_57) P8)) (or (or ?v_135 ?v_39) ?v_138)) (or (or ?v_2 ?v_55) ?v_149)) (or (or ?v_119 ?v_71) ?v_138)) (or (or ?v_14 ?v_13) ?v_104)) (or (or ?v_5 ?v_66) ?v_70)) (or (or ?v_53 ?v_106) ?v_126)) (or (or ?v_119 ?v_135) ?v_63)) (or (or ?v_52 ?v_28) ?v_47)) (or (or ?v_62 ?v_117) P27)) (or (or ?v_2 ?v_90) ?v_61)) (or (or P21 ?v_84) ?v_127)) (or (or ?v_139 ?v_129) ?v_73)) (or (or ?v_138 ?v_109) ?v_80)) (or (or ?v_140 ?v_117) ?v_38)) (or (or ?v_12 ?v_139) P11)) (or (or ?v_71 ?v_71) ?v_70)) (or (or P10 ?v_25) P17)) (or (or ?v_128 ?v_116) ?v_123)) (or (or ?v_130 ?v_54) ?v_53)) (or (or P24 ?v_125) ?v_8)) (or (or ?v_126 P27) P24)) (or (or ?v_75 ?v_28) ?v_6)) (or (or ?v_104 ?v_91) ?v_123)) (or (or ?v_6 ?v_61) ?v_11)) (or (or ?v_24 ?v_44) ?v_6)) (or (or ?v_118 ?v_56) ?v_145)) (or (or P5 ?v_134) P12)) (or (or ?v_62 P1) ?v_89)) (or (or ?v_5 ?v_39) ?v_105)) (or (or ?v_45 P13) ?v_37)) (or (or P14 ?v_134) ?v_102)) (or (or ?v_88 ?v_154) ?v_29)) (or (or ?v_58 ?v_66) ?v_69)) (or (or P3 ?v_76) P27)) (or (or P4 ?v_16) ?v_46)) (or (or ?v_151 ?v_67) ?v_70)) (or (or ?v_117 ?v_62) ?v_10)) (or (or ?v_54 ?v_17) P24)) (or ?v_156 ?v_94)) (or (or ?v_147 ?v_102) ?v_152)) (or (or ?v_29 ?v_62) ?v_109)) (or (or ?v_88 ?v_16) ?v_57)) (or (or ?v_29 P17) ?v_128)) (or (or ?v_46 ?v_32) ?v_122)) (or (or ?v_140 ?v_147) ?v_122)) (or (or ?v_94 ?v_92) ?v_116)) (or (or ?v_11 P26) P16)) (or (or ?v_158 ?v_26) ?v_157)) (or (or ?v_127 ?v_87) ?v_45)) (or (or ?v_153 ?v_121) P14)) (or (or ?v_23 ?v_41) ?v_97)) (or (or P28 P10) ?v_8)) (or (or ?v_141 ?v_8) P6)) (or (or ?v_10 ?v_38) P14)) (or (or ?v_108 ?v_18) ?v_135)) (or (or P7 ?v_88) ?v_104)) (or (or P17 ?v_127) ?v_145)) (or (or ?v_79 P23) ?v_0)) (or (or ?v_94 P6) ?v_84)) (or (or ?v_120 ?v_95) ?v_3)) (or (or P22 ?v_47) ?v_147)) (or (or ?v_45 ?v_70) P23)) (or (or ?v_142 ?v_50) ?v_22)) (or (or ?v_23 ?v_58) ?v_111)) (or (or ?v_22 ?v_155) ?v_113)) (or (or ?v_92 ?v_88) ?v_74)) (or (or ?v_99 ?v_46) ?v_5)) (or (or P24 ?v_140) ?v_79)) (or (or P14 ?v_149) P5)) (or (or ?v_0 P21) ?v_46)) (or (or ?v_68 ?v_73) ?v_54)) (or (or ?v_152 ?v_105) P1)) (or (or ?v_124 ?v_22) ?v_25)) (or (or ?v_12 ?v_2) ?v_87)) (or (or ?v_131 ?v_124) ?v_158)) (or (or ?v_89 ?v_6) ?v_14)) (or (or ?v_16 ?v_38) ?v_62)) (or (or ?v_91 ?v_116) ?v_114)) (or (or ?v_32 ?v_97) ?v_118)) (or (or ?v_5 ?v_98) ?v_8)) (or (or ?v_93 ?v_124) ?v_140)) (or (or ?v_7 ?v_95) P28)) (or (or ?v_115 P25) ?v_60)) (or (or ?v_151 P10) ?v_134)) (or (or P17 ?v_59) ?v_43)) (or (or ?v_5 ?v_19) ?v_150)) (or (or ?v_124 ?v_130) ?v_155)) (or (or P15 ?v_63) ?v_116)) (or (or ?v_144 ?v_41) ?v_88)) (or (or P21 ?v_85) ?v_139))))))))))))))))))))))))
(check-sat)
(exit)
